Problem:    
Rows:       113
Columns:    45 (34 integer, 34 binary)
Non-zeros:  356
Status:     INTEGER OPTIMAL
Objective:  value = 38.66648 (MINimum)

   No.   Row name        Activity     Lower bound   Upper bound
------ ------------    ------------- ------------- -------------
     1 r.5                   38.6665             0               
     2 r.6                   38.6665       -956.77               
     3 r.7                   1038.67             0               
     4 r.8                  -961.334      -963.433               
     5 r.9                   1038.67             0               
     6 r.10                 -961.334       -980.29               
     7 r.11                  38.6665             0               
     8 r.12                  38.6665      -982.768               
     9 r.13                  1038.67             0               
    10 r.14                 -981.044      -992.401               
    11 r.15                  38.6665             0               
    12 r.16                  38.6665       -992.58               
    13 r.17                  1038.67             0               
    14 r.18                 -988.642      -993.266               
    15 r.19                  38.6665             0               
    16 r.20                  38.6665      -995.566               
    17 r.21                  1038.67             0               
    18 r.22                 -999.761      -999.761               
    19 r.23                  38.6665             0               
    20 r.24                   3.7573      -998.081               
    21 r.25                        1             1             = 
    22 r.26                        1             1             = 
    23 r.27                        1             1             = 
    24 r.28                        1             1             = 
    25 r.29                        1             1             = 
    26 r.30                     1001             2               
    27 r.31                    -1001         -1001               
    28 r.32                     2000       -980.29               
    29 r.33                     1001             2               
    30 r.34                    -1001         -1001               
    31 r.35                     2000      -982.768               
    32 r.36                     1001             2               
    33 r.37                    -1001         -1001               
    34 r.38                  1980.29      -992.401               
    35 r.39                     1001             2               
    36 r.40                    -1001         -1001               
    37 r.41                     2000       -992.58               
    38 r.42                     1001             2               
    39 r.43                    -1001         -1001               
    40 r.44                  1972.69      -993.266               
    41 r.45                     1001             2               
    42 r.46                    -1001         -1001               
    43 r.47                     2000      -995.566               
    44 r.48                  36.5668       -956.77               
    45 r.49                 -963.433      -963.433               
    46 r.50                  36.5668       -956.77               
    47 r.51                 -963.433      -963.433               
    48 r.52                     1001             2               
    49 r.53                    -1001         -1001               
    50 r.54                     2000       43.2298               
    51 r.55                     1001             2               
    52 r.56                    -1001         -1001               
    53 r.57                     2000       36.5668               
    54 r.58                        2             2               
    55 r.59                       -2         -1001               
    56 r.60                 -19.7103      -992.401               
    57 r.61                     1000             2               
    58 r.62                    -1000         -1001               
    59 r.63                     2000       -992.58               
    60 r.64                        2             2               
    61 r.65                       -2         -1001               
    62 r.66                  -27.309      -993.266               
    63 r.67                     1000             2               
    64 r.68                    -1000         -1001               
    65 r.69                     2000      -995.566               
    66 r.70                 -963.433       -980.29               
    67 r.71                  36.5668      -982.768               
    68 r.72                 -963.433       -980.29               
    69 r.73                  36.5668      -982.768               
    70 r.74                     1001             2               
    71 r.75                    -1001         -1001               
    72 r.76                  2019.71       43.2298               
    73 r.77                     1001             2               
    74 r.78                    -1001         -1001               
    75 r.79                     2000       36.5668               
    76 r.80                        2             2               
    77 r.81                       -2         -1001               
    78 r.82                  19.7103       19.7103               
    79 r.83                     1000             2               
    80 r.84                    -1000         -1001               
    81 r.85                     2000       17.2323               
    82 r.86                        2             2               
    83 r.87                       -2         -1001               
    84 r.88                 -7.59871      -993.266               
    85 r.89                     1000             2               
    86 r.90                    -1000         -1001               
    87 r.91                     2000      -995.566               
    88 r.92                 -983.144      -992.401               
    89 r.93                  36.5668       -992.58               
    90 r.94                 -983.144      -992.401               
    91 r.95                  36.5668       -992.58               
    92 r.96                     1001             2               
    93 r.97                    -1001         -1001               
    94 r.98                  2027.31       43.2298               
    95 r.99                     1001             2               
    96 r.100                   -1001         -1001               
    97 r.101                    2000       36.5668               
    98 r.102                       2             2               
    99 r.103                      -2         -1001               
   100 r.104                  27.309       19.7103               
   101 r.105                    1000             2               
   102 r.106                   -1000         -1001               
   103 r.107                    2000       17.2323               
   104 r.108                       2             2               
   105 r.109                      -2         -1001               
   106 r.110                 7.59871       7.59871               
   107 r.111                    1000             2               
   108 r.112                   -1000         -1001               
   109 r.113                    2000       7.42037               
   110 r.114                -990.742      -993.266               
   111 r.115                 36.5668      -995.566               
   112 r.116                -990.742      -993.266               
   113 r.117                 36.5668      -995.566               

   No. Column name       Activity     Lower bound   Upper bound
------ ------------    ------------- ------------- -------------
     1 tt                    38.6665             0               
     2 s_1_1        *              0             0             1 
     3 t_1_1                       0             0               
     4 s_2_1        *              1             0             1 
     5 t_2_1                       0             0               
     6 s_1_2        *              1             0             1 
     7 t_1_2                       0             0               
     8 s_2_2        *              0             0             1 
     9 t_2_2                       0             0               
    10 s_1_3        *              1             0             1 
    11 t_1_3                 19.7103             0               
    12 s_2_3        *              0             0             1 
    13 t_2_3                       0             0               
    14 s_1_4        *              1             0             1 
    15 t_1_4                  27.309             0               
    16 s_2_4        *              0             0             1 
    17 t_2_4                       0             0               
    18 s_1_5        *              1             0             1 
    19 t_1_5                 36.5668             0               
    20 s_2_5        *              0             0             1 
    21 t_2_5                 36.5668             0               
    22 r_1_1_2      *              1             0             1 
    23 u_1_1_2      *              0             0             1 
    24 r_2_1_2      *              1             0             1 
    25 u_2_1_2      *              0             0             1 
    26 r_1_1_3      *              1             0             1 
    27 u_1_1_3      *              0             0             1 
    28 r_2_1_3      *              1             0             1 
    29 u_2_1_3      *              0             0             1 
    30 r_1_1_4      *              1             0             1 
    31 u_1_1_4      *              0             0             1 
    32 r_2_1_4      *              1             0             1 
    33 u_2_1_4      *              0             0             1 
    34 r_1_2_3      *              0             0             1 
    35 u_1_2_3      *              0             0             1 
    36 r_2_2_3      *              1             0             1 
    37 u_2_2_3      *              0             0             1 
    38 r_1_2_4      *              0             0             1 
    39 u_1_2_4      *              0             0             1 
    40 r_2_2_4      *              1             0             1 
    41 u_2_2_4      *              0             0             1 
    42 r_1_3_4      *              0             0             1 
    43 u_1_3_4      *              0             0             1 
    44 r_2_3_4      *              1             0             1 
    45 u_2_3_4      *              0             0             1 

Integer feasibility conditions:

KKT.PE: max.abs.err = 2.27e-13 on row 18
        max.rel.err = 1.09e-16 on row 18
        High quality

KKT.PB: max.abs.err = 8.88e-16 on row 106
        max.rel.err = 1.03e-16 on row 106
        High quality

End of output
